NAME : lr112.1003766.tour
COMMENT : Cost = 0_1003766
COMMENT : Found by LKH [Keld Helsgaun] Fri Sep 15 17:42:01 2017
TYPE : TOUR
DIMENSION : 115
TOUR_SECTION
1
6
62
17
87
39
15
45
92
101
103
38
97
111
29
77
80
79
35
36
72
66
67
21
106
2
110
96
60
100
95
7
19
84
85
18
46
61
90
109
28
32
89
8
83
9
47
37
50
48
49
105
114
93
99
86
94
88
58
16
44
43
98
14
59
113
53
63
20
12
65
64
91
33
11
71
108
3
42
23
73
75
102
76
57
24
68
40
5
112
70
31
52
10
82
107
34
51
30
4
78
69
115
22
74
41
54
27
13
81
104
25
26
56
55
-1
EOF
